partE/conjure-output/model000001-data2-solution000001.eprime-solution
language ESSENCE' 1.0

letting selected_Occurrence be
        [true, false, false, true, false, false, false, true, true, false, true, false, false, true, false, false,
         false, true, false, true;
             int(1..20)]
