partE/conjure-output/model000001-data2-solution000001.solution
language Essence 1.3

letting selected be {1, 4, 8, 9, 11, 14, 18, 20}
